experiments/macc-graded/detailed-output/inst-2-1489266180.dzn

A = 1;
T = 10;
X = 9;
Y = 9;
Z = 3;
building = array2d(0..8, 0..8,
                   [0, 0, 0, 0, 0, 0, 0, 0, 0, 0, 0, 1, 0, 0, 2, 1, 1, 0, 0, 1, 1, 2, 0, 0, 2, 2, 0,
                    0, 2, 0, 0, 0, 2, 0, 1, 0, 0, 1, 1, 1, 1, 1, 1, 1, 0, 0, 1, 1, 1, 1, 1, 1, 1, 0,
                    0, 1, 1, 1, 1, 1, 1, 1, 0, 0, 1, 1, 1, 1, 1, 1, 1, 0, 0, 0, 0, 0, 0, 0, 0, 0, 0]);
